param NUMSCEN :=50; 			#scenarios
param prob := 0.02;			#probability of scenario;
param pI := 4;				#Total component number
param pT := 20;     		#Time horizon
param pT_ex := 40;			#extended time horizon
param ps := 2;				#Starting time
param pR := 22;				#Number of individuals = pT+2

param pd := 5;				#set up cost
